NAME : mtspf.pid11127.gtsp.26643547.tour
COMMENT : Length = 26643547
COMMENT : Found by LKH [Keld Helsgaun] Sun Dec 29 16:29:40 2024
TYPE : TOUR
DIMENSION : 11
TOUR_SECTION
1
2
3
7
4
5
6
8
9
10
11
-1
EOF
